db/data/3069412999193251398216394223092944014553.z3.out
sat
-------------------
478.041562310
